50
0 1 0.52 0.29
0 2 0.7 0.31
0 3 0.76 0.28
0 4 0.38 0.32
0 5 0.54 0.27
0 6 0.51 0.3
0 7 0.34 0.19
0 8 0.56 0.26
0 9 0.66 0.17
0 10 0.33 0.18
0 11 0.7 0.24
0 12 0.51 0.22
0 13 0.51 0.26
0 14 0.82 0.22
0 15 0.74 0.16
0 16 0.66 0.22
0 17 0.6 0.28
0 18 0.56 0.18
0 19 0.74 0.26
0 20 0.59 0.2
0 21 0.62 0.29
0 22 0.66 0.12
0 23 0.5 0.26
0 24 0.65 0.23
0 25 0.54 0.3
0 26 0.44 0.04
0 27 0.68 0.34
0 28 0.3 0.28
0 29 0.5 0.26
0 30 0.62 0.32
0 31 0.58 0.34
0 32 0.82 0.2
0 33 0.56 0.2
0 34 0.59 0.33
0 35 0.38 0.24
0 36 0.71 0.32
0 37 0.67 0.3
0 38 0.68 0.28
0 39 0.48 0.26
0 40 0.56 0.29
0 41 0.49 0.28
0 42 0.76 0.32
0 43 0.84 0.26
0 44 0.6 0.22
0 45 0.64 0.24
0 46 0.64 0.27
0 47 0.44 0.24
0 48 0.56 0.16
0 49 0.3 0.22
1 2 0.7 0.25
1 3 0.35 0.22
1 4 0.67 0.28
1 5 0.52 0.24
1 6 0.54 0.28
1 7 0.51 0.14
1 8 0.45 0.2
1 9 0.14 0.12
1 10 0.59 0.13
1 11 0.57 0.1
1 12 0.55 0.2
1 13 0.6 0.26
1 14 0.64 0.23
1 15 0.66 0.16
1 16 0.76 0.22
1 17 0.54 0.14
1 18 0.7 0.13
1 19 0.42 0.2
1 20 0.78 0.2
1 21 0.66 0.24
1 22 0.52 0.22
1 23 0.55 0.26
1 24 0.4 0.22
1 25 0.28 0.25
1 26 0.71 0.25
1 27 0.52 0.27
1 28 0.52 0.26
1 29 0.66 0.26
1 30 0.72 0.3
1 31 0.76 0.26
1 32 0.76 0.2
1 33 0.54 0.2
1 34 0.59 0.18
1 35 0.7 0.22
1 36 0.59 0.38
1 37 0.66 0.22
1 38 0.54 0.22
1 39 0.62 0.1
1 40 0.66 0.08
1 41 0.71 0.21
1 42 0.52 0.26
1 43 0.8 0.21
1 44 0.62 0.2
1 45 0.45 0.24
1 46 0.6 0.3
1 47 0.56 0.24
1 48 0.68 0.16
1 49 0.54 0.29
2 3 0.68 0.24
2 4 0.63 0.24
2 5 0.68 0.22
2 6 0.5 0.16
2 7 0.63 0.21
2 8 0.63 0.25
2 9 0.56 0.19
2 10 0.62 0.18
2 11 0.72 0.29
2 12 0.72 0.13
2 13 0.65 0.24
2 14 0.64 0.17
2 15 0.6 0.15
2 16 0.65 0.21
2 17 0.52 0.25
2 18 0.53 0.18
2 19 0.61 0.28
2 20 0.76 0.19
2 21 0.62 0.24
2 22 0.58 0.26
2 23 0.43 0.24
2 24 0.32 0.08
2 25 0.59 0.24
2 26 0.62 0.28
2 27 0.58 0.24
2 28 0.43 0.14
2 29 0.68 0.06
2 30 0.66 0.26
2 31 0.68 0.26
2 32 0.65 0.19
2 33 0.64 0.11
2 34 0.56 0.18
2 35 0.71 0.15
2 36 0.76 0.31
2 37 0.84 0.1
2 38 0.66 0.19
2 39 0.4 0.15
2 40 0.62 0.26
2 41 0.68 0.18
2 42 0.52 0.27
2 43 0.73 0.28
2 44 0.78 0.13
2 45 0.32 0.23
2 46 0.59 0.18
2 47 0.68 0.19
2 48 0.32 0.15
2 49 0.63 0.18
3 4 0.7 0.12
3 5 0.61 0.02
3 6 0.64 0.2
3 7 0.47 0.13
3 8 0.56 0.24
3 9 0.25 0.14
3 10 0.46 0.15
3 11 0.6 0.28
3 12 0.71 0.16
3 13 0.4 0.12
3 14 0.56 0.28
3 15 0.72 0.16
3 16 0.79 0.16
3 17 0.43 0.28
3 18 0.48 0.15
3 19 0.32 0.2
3 20 0.76 0.18
3 21 0.44 0.18
3 22 0.62 0.29
3 23 0.62 0.2
3 24 0.66 0.17
3 25 0.63 0.14
3 26 0.66 0.24
3 27 0.59 0.12
3 28 0.73 0.19
3 29 0.76 0.18
3 30 0.72 0.26
3 31 0.64 0.16
3 32 0.82 0.18
3 33 0.56 0.14
3 34 0.48 0.18
3 35 0.66 0.18
3 36 0.61 0.25
3 37 0.8 0.15
3 38 0.62 0.14
3 39 0.58 0.12
3 40 0.62 0.26
3 41 0.64 0.06
3 42 0.5 0.14
3 43 0.68 0.23
3 44 0.73 0.16
3 45 0.8 0.17
3 46 0.62 0.08
3 47 0.59 0.14
3 48 0.56 0.16
3 49 0.46 0.07
4 5 0.54 0.1
4 6 0.13 0.12
4 7 0.65 0.21
4 8 0.8 0.3
4 9 0.56 0.22
4 10 0.48 0.21
4 11 0.49 0.33
4 12 0.57 0.24
4 13 0.36 0.2
4 14 0.52 0.29
4 15 0.59 0.18
4 16 0.38 0.2
4 17 0.82 0.36
4 18 0.52 0.21
4 19 0.7 0.28
4 20 0.59 0.22
4 21 0.61 0.3
4 22 0.74 0.24
4 23 0.42 0.16
4 24 0.53 0.24
4 25 0.72 0.22
4 26 0.65 0.35
4 27 0.55 0.2
4 28 0.56 0.23
4 29 0.49 0.18
4 30 0.62 0.22
4 31 0.64 0.24
4 32 0.69 0.22
4 33 0.74 0.22
4 34 0.46 0.24
4 35 0.62 0.26
4 36 0.59 0.33
4 37 0.37 0.14
4 38 0.65 0.26
4 39 0.4 0.23
4 40 0.55 0.32
4 41 0.6 0.14
4 42 0.51 0.26
4 43 0.5 0.31
4 44 0.53 0.24
4 45 0.5 0.25
4 46 0.6 0.2
4 47 0.65 0.22
4 48 0.31 0.18
4 49 0.4 0.15
5 6 0.57 0.18
5 7 0.7 0.11
5 8 0.76 0.26
5 9 0.6 0.13
5 10 0.48 0.14
5 11 0.5 0.3
5 12 0.5 0.16
5 13 0.46 0.14
5 14 0.49 0.27
5 15 0.41 0.14
5 16 0.81 0.18
5 17 0.46 0.26
5 18 0.58 0.14
5 19 0.68 0.18
5 20 0.72 0.18
5 21 0.58 0.2
5 22 0.64 0.28
5 23 0.44 0.21
5 24 0.71 0.19
5 25 0.51 0.12
5 26 0.53 0.26
5 27 0.61 0.1
5 28 0.56 0.17
5 29 0.64 0.16
5 30 0.67 0.26
5 31 0.55 0.14
5 32 0.31 0.16
5 33 0.76 0.16
5 34 0.52 0.16
5 35 0.45 0.18
5 36 0.52 0.23
5 37 0.5 0.13
5 38 0.61 0.16
5 39 0.65 0.14
5 40 0.64 0.25
5 41 0.42 0.04
5 42 0.39 0.16
5 43 0.48 0.22
5 44 0.53 0.16
5 45 0.64 0.15
5 46 0.45 0.1
5 47 0.65 0.12
5 48 0.69 0.14
5 49 0.24 0.05
6 7 0.58 0.2
6 8 0.78 0.18
6 9 0.66 0.18
6 10 0.61 0.17
6 11 0.62 0.24
6 12 0.54 0.12
6 13 0.36 0.08
6 14 0.65 0.21
6 15 0.46 0.14
6 16 0.51 0.12
6 17 0.73 0.24
6 18 0.39 0.17
6 19 0.64 0.23
6 20 0.46 0.14
6 21 0.48 0.21
6 22 0.72 0.25
6 23 0.4 0.16
6 24 0.4 0.12
6 25 0.6 0.28
6 26 0.52 0.31
6 27 0.52 0.2
6 28 0.43 0.18
6 29 0.54 0.1
6 30 0.63 0.22
6 31 0.73 0.23
6 32 0.56 0.18
6 33 0.63 0.1
6 34 0.57 0.15
6 35 0.49 0.14
6 36 0.7 0.29
6 37 0.5 0.14
6 38 0.74 0.18
6 39 0.48 0.2
6 40 0.42 0.2
6 41 0.64 0.14
6 42 0.38 0.24
6 43 0.58 0.27
6 44 0.4 0.12
6 45 0.62 0.18
6 46 0.54 0.26
6 47 0.52 0.16
6 48 0.18 0.14
6 49 0.53 0.22
7 8 0.7 0.19
7 9 0.56 0.02
7 10 0.5 0.03
7 11 0.38 0.24
7 12 0.58 0.12
7 13 0.74 0.16
7 14 0.64 0.24
7 15 0.54 0.06
7 16 0.6 0.12
7 17 0.71 0.24
7 18 0.64 0.03
7 19 0.66 0.24
7 20 0.7 0.1
7 21 0.56 0.14
7 22 0.42 0.18
7 23 0.43 0.16
7 24 0.53 0.13
7 25 0.64 0.22
7 26 0.32 0.15
7 27 0.62 0.21
7 28 0.58 0.19
7 29 0.68 0.27
7 30 0.64 0.22
7 31 0.28 0.24
7 32 0.5 0.1
7 33 0.22 0.1
7 34 0.46 0.23
7 35 0.46 0.12
7 36 0.53 0.28
7 37 0.68 0.24
7 38 0.52 0.18
7 39 0.62 0.2
7 40 0.49 0.14
7 41 0.56 0.15
7 42 0.73 0.18
7 43 0.75 0.11
7 44 0.45 0.12
7 45 0.78 0.14
7 46 0.69 0.2
7 47 0.54 0.14
7 48 0.5 0.06
7 49 0.48 0.16
8 9 0.31 0.17
8 10 0.62 0.18
8 11 0.47 0.27
8 12 0.52 0.12
8 13 0.66 0.26
8 14 0.65 0.27
8 15 0.64 0.18
8 16 0.66 0.24
8 17 0.62 0.24
8 18 0.64 0.18
8 19 0.65 0.21
8 20 0.51 0.22
8 21 0.74 0.29
8 22 0.43 0.28
8 23 0.42 0.24
8 24 0.8 0.17
8 25 0.65 0.33
8 26 0.65 0.28
8 27 0.7 0.29
8 28 0.52 0.23
8 29 0.48 0.28
8 30 0.28 0.24
8 31 0.64 0.33
8 32 0.54 0.22
8 33 0.48 0.14
8 34 0.6 0.27
8 35 0.5 0.14
8 36 0.36 0.22
8 37 0.65 0.3
8 38 0.64 0.22
8 39 0.44 0.24
8 40 0.36 0.28
8 41 0.67 0.24
8 42 0.69 0.26
8 43 0.71 0.26
8 44 0.4 0.12
8 45 0.71 0.26
8 46 0.31 0.16
8 47 0.41 0.18
8 48 0.62 0.18
8 49 0.52 0.25
9 10 0.45 0.01
9 11 0.71 0.22
9 12 0.46 0.1
9 13 0.46 0.14
9 14 0.5 0.22
9 15 0.54 0.04
9 16 0.78 0.1
9 17 0.4 0.22
9 18 0.64 0.01
9 19 0.56 0.22
9 20 0.64 0.08
9 21 0.52 0.12
9 22 0.66 0.16
9 23 0.69 0.14
9 24 0.54 0.11
9 25 0.42 0.2
9 26 0.76 0.13
9 27 0.66 0.21
9 28 0.66 0.17
9 29 0.62 0.25
9 30 0.59 0.2
9 31 0.72 0.22
9 32 0.64 0.08
9 33 0.6 0.08
9 34 0.64 0.21
9 35 0.58 0.1
9 36 0.67 0.26
9 37 0.79 0.26
9 38 0.57 0.16
9 39 0.48 0.18
9 40 0.67 0.12
9 41 0.68 0.17
9 42 0.38 0.16
9 43 0.88 0.09
9 44 0.52 0.1
9 45 0.59 0.12
9 46 0.62 0.22
9 47 0.6 0.12
9 48 0.54 0.04
9 49 0.63 0.18
10 11 0.66 0.23
10 12 0.64 0.09
10 13 0.84 0.13
10 14 0.64 0.21
10 15 0.79 0.03
10 16 0.33 0.09
10 17 0.7 0.21
10 18 0.35 0.0
10 19 0.74 0.21
10 20 0.47 0.07
10 21 0.44 0.11
10 22 0.42 0.17
10 23 0.6 0.13
10 24 0.32 0.1
10 25 0.39 0.19
10 26 0.62 0.14
10 27 0.57 0.2
10 28 0.58 0.16
10 29 0.63 0.24
10 30 0.44 0.19
10 31 0.68 0.21
10 32 0.69 0.07
10 33 0.62 0.07
10 34 0.67 0.2
10 35 0.53 0.11
10 36 0.79 0.26
10 37 0.51 0.25
10 38 0.61 0.15
10 39 0.51 0.17
10 40 0.69 0.13
10 41 0.38 0.18
10 42 0.56 0.15
10 43 0.79 0.1
10 44 0.27 0.09
10 45 0.58 0.11
10 46 0.31 0.23
10 47 0.75 0.11
10 48 0.56 0.03
10 49 0.63 0.17
11 12 0.57 0.16
11 13 0.8 0.28
11 14 0.45 0.25
11 15 0.62 0.22
11 16 0.56 0.24
11 17 0.6 0.04
11 18 0.6 0.23
11 19 0.44 0.12
11 20 0.75 0.26
11 21 0.56 0.22
11 22 0.67 0.12
11 23 0.69 0.2
11 24 0.66 0.21
11 25 0.54 0.3
11 26 0.37 0.28
11 27 0.54 0.2
11 28 0.4 0.27
11 29 0.56 0.3
11 30 0.58 0.26
11 31 0.38 0.22
11 32 0.64 0.26
11 33 0.6 0.18
11 34 0.48 0.21
11 35 0.62 0.18
11 36 0.68 0.34
11 37 0.54 0.32
11 38 0.52 0.14
11 39 0.32 0.18
11 40 0.62 0.14
11 41 0.49 0.26
11 42 0.73 0.18
11 43 0.72 0.19
11 44 0.74 0.16
11 45 0.4 0.3
11 46 0.52 0.28
11 47 0.52 0.22
11 48 0.62 0.22
11 49 0.7 0.29
12 13 0.51 0.14
12 14 0.44 0.16
12 15 0.5 0.06
12 16 0.36 0.12
12 17 0.77 0.12
12 18 0.42 0.09
12 19 0.49 0.16
12 20 0.62 0.1
12 21 0.54 0.18
12 22 0.22 0.17
12 23 0.34 0.16
12 24 0.68 0.05
12 25 0.46 0.21
12 26 0.52 0.23
12 27 0.51 0.18
12 28 0.54 0.11
12 29 0.58 0.19
12 30 0.57 0.21
12 31 0.66 0.22
12 32 0.53 0.1
12 33 0.42 0.02
12 34 0.59 0.15
12 35 0.6 0.02
12 36 0.6 0.18
12 37 0.61 0.21
12 38 0.47 0.1
12 39 0.64 0.2
12 40 0.44 0.22
12 41 0.66 0.12
12 42 0.66 0.14
12 43 0.72 0.19
12 44 0.72 0.0
12 45 0.62 0.14
12 46 0.44 0.17
12 47 0.2 0.06
12 48 0.47 0.06
12 49 0.54 0.13
13 14 0.4 0.28
13 15 0.52 0.1
13 16 0.74 0.04
13 17 0.63 0.26
13 18 0.54 0.13
13 19 0.59 0.2
13 20 0.76 0.06
13 21 0.63 0.13
13 22 0.5 0.25
13 23 0.54 0.08
13 24 0.54 0.17
13 25 0.7 0.26
13 26 0.54 0.26
13 27 0.41 0.2
13 28 0.62 0.13
13 29 0.64 0.18
13 30 0.74 0.14
13 31 0.5 0.16
13 32 0.42 0.12
13 33 0.7 0.14
13 34 0.32 0.21
13 35 0.64 0.16
13 36 0.72 0.21
13 37 0.64 0.22
13 38 0.52 0.21
13 39 0.48 0.24
13 40 0.78 0.26
13 41 0.56 0.18
13 42 0.34 0.17
13 43 0.7 0.23
13 44 0.76 0.14
13 45 0.6 0.1
13 46 0.56 0.2
13 47 0.71 0.08
13 48 0.33 0.1
13 49 0.57 0.15
14 15 0.52 0.18
14 16 0.49 0.24
14 17 0.76 0.28
14 18 0.82 0.21
14 19 0.52 0.27
14 20 0.68 0.22
14 21 0.81 0.3
14 22 0.22 0.13
14 23 0.78 0.28
14 24 0.32 0.14
14 25 0.46 0.3
14 26 0.44 0.18
14 27 0.67 0.26
14 28 0.52 0.26
14 29 0.55 0.11
14 30 0.62 0.31
14 31 0.67 0.3
14 32 0.42 0.22
14 33 0.42 0.14
14 34 0.49 0.18
14 35 0.72 0.18
14 36 0.6 0.24
14 37 0.58 0.15
14 38 0.41 0.22
14 39 0.65 0.26
14 40 0.42 0.15
14 41 0.48 0.23
14 42 0.44 0.26
14 43 0.46 0.31
14 44 0.77 0.16
14 45 0.63 0.26
14 46 0.7 0.3
14 47 0.64 0.22
14 48 0.73 0.18
14 49 0.73 0.23
15 16 0.56 0.06
15 17 0.61 0.18
15 18 0.44 0.03
15 19 0.58 0.18
15 20 0.66 0.04
15 21 0.54 0.14
15 22 0.42 0.19
15 23 0.62 0.1
15 24 0.5 0.07
15 25 0.46 0.16
15 26 0.44 0.17
15 27 0.7 0.22
15 28 0.62 0.13
15 29 0.3 0.21
15 30 0.66 0.16
15 31 0.36 0.18
15 32 0.1 0.04
15 33 0.62 0.04
15 34 0.54 0.17
15 35 0.58 0.08
15 36 0.54 0.23
15 37 0.47 0.22
15 38 0.39 0.12
15 39 0.55 0.14
15 40 0.44 0.16
15 41 0.6 0.18
15 42 0.46 0.18
15 43 0.77 0.13
15 44 0.64 0.06
15 45 0.5 0.08
15 46 0.61 0.2
15 47 0.68 0.08
15 48 0.28 0.0
15 49 0.54 0.14
16 17 0.6 0.24
16 18 0.46 0.09
16 19 0.73 0.16
16 20 0.57 0.02
16 21 0.66 0.14
16 22 0.58 0.21
16 23 0.61 0.04
16 24 0.65 0.13
16 25 0.72 0.22
16 26 0.71 0.22
16 27 0.71 0.16
16 28 0.51 0.12
16 29 0.48 0.22
16 30 0.77 0.1
16 31 0.6 0.12
16 32 0.6 0.1
16 33 0.77 0.1
16 34 0.63 0.2
16 35 0.64 0.14
16 36 0.64 0.17
16 37 0.56 0.18
16 38 0.28 0.17
16 39 0.64 0.2
16 40 0.54 0.22
16 41 0.71 0.22
16 42 0.69 0.18
16 43 0.54 0.19
16 44 0.6 0.12
16 45 0.56 0.06
16 46 0.64 0.19
16 47 0.56 0.12
16 48 0.6 0.06
16 49 0.78 0.16
17 18 0.48 0.21
17 19 0.28 0.08
17 20 0.54 0.22
17 21 0.79 0.18
17 22 0.78 0.16
17 23 0.48 0.22
17 24 0.79 0.17
17 25 0.54 0.33
17 26 0.7 0.3
17 27 0.49 0.16
17 28 0.3 0.23
17 29 0.44 0.26
17 30 0.52 0.28
17 31 0.5 0.2
17 32 0.51 0.22
17 33 0.6 0.14
17 34 0.58 0.22
17 35 0.49 0.14
17 36 0.53 0.3
17 37 0.61 0.3
17 38 0.44 0.18
17 39 0.59 0.22
17 40 0.56 0.18
17 41 0.68 0.22
17 42 0.4 0.14
17 43 0.6 0.15
17 44 0.74 0.12
17 45 0.64 0.26
17 46 0.39 0.24
17 47 0.76 0.18
17 48 0.66 0.18
17 49 0.49 0.25
18 19 0.46 0.21
18 20 0.51 0.07
18 21 0.4 0.11
18 22 0.64 0.17
18 23 0.53 0.13
18 24 0.66 0.1
18 25 0.42 0.19
18 26 0.56 0.14
18 27 0.48 0.2
18 28 0.63 0.16
18 29 0.57 0.24
18 30 0.49 0.19
18 31 0.56 0.21
18 32 0.54 0.07
18 33 0.67 0.07
18 34 0.5 0.2
18 35 0.18 0.11
18 36 0.45 0.26
18 37 0.51 0.25
18 38 0.59 0.15
18 39 0.51 0.17
18 40 0.66 0.13
18 41 0.67 0.18
18 42 0.62 0.15
18 43 0.75 0.1
18 44 0.38 0.09
18 45 0.65 0.11
18 46 0.54 0.23
18 47 0.56 0.11
18 48 0.21 0.03
18 49 0.55 0.17
19 20 0.57 0.14
19 21 0.72 0.1
19 22 0.64 0.24
19 23 0.34 0.2
19 24 0.51 0.2
19 25 0.54 0.28
19 26 0.56 0.22
19 27 0.27 0.08
19 28 0.5 0.22
19 29 0.62 0.26
19 30 0.54 0.26
19 31 0.77 0.12
19 32 0.51 0.22
19 33 0.44 0.18
19 34 0.6 0.14
19 35 0.59 0.18
19 36 0.53 0.33
19 37 0.73 0.3
19 38 0.45 0.26
19 39 0.54 0.22
19 40 0.36 0.12
19 41 0.46 0.14
19 42 0.29 0.06
19 43 0.75 0.23
19 44 0.5 0.16
19 45 0.6 0.18
19 46 0.43 0.21
19 47 0.52 0.22
19 48 0.67 0.18
19 49 0.54 0.22
20 21 0.71 0.16
20 22 0.46 0.22
20 23 0.33 0.06
20 24 0.6 0.11
20 25 0.62 0.2
20 26 0.6 0.2
20 27 0.65 0.18
20 28 0.72 0.14
20 29 0.75 0.24
20 30 0.53 0.12
20 31 0.56 0.14
20 32 0.56 0.08
20 33 0.48 0.08
20 34 0.56 0.21
20 35 0.66 0.12
20 36 0.4 0.19
20 37 0.58 0.2
20 38 0.68 0.15
20 39 0.58 0.18
20 40 0.75 0.2
20 41 0.53 0.22
20 42 0.75 0.2
20 43 0.86 0.17
20 44 0.54 0.1
20 45 0.8 0.04
20 46 0.74 0.21
20 47 0.73 0.12
20 48 0.45 0.04
20 49 0.53 0.14
21 22 0.76 0.28
21 23 0.38 0.18
21 24 0.49 0.16
21 25 0.78 0.3
21 26 0.83 0.25
21 27 0.59 0.18
21 28 0.59 0.26
21 29 0.54 0.3
21 30 0.61 0.24
21 31 0.29 0.22
21 32 0.55 0.18
21 33 0.76 0.18
21 34 0.47 0.24
21 35 0.58 0.16
21 36 0.53 0.31
21 37 0.62 0.28
21 38 0.64 0.26
21 39 0.6 0.22
21 40 0.6 0.22
21 41 0.75 0.19
21 42 0.77 0.04
21 43 0.6 0.21
21 44 0.34 0.18
21 45 0.41 0.2
21 46 0.75 0.26
21 47 0.71 0.21
21 48 0.3 0.14
21 49 0.34 0.2
22 23 0.56 0.17
22 24 0.52 0.18
22 25 0.24 0.18
22 26 0.32 0.16
22 27 0.6 0.32
22 28 0.48 0.23
22 29 0.66 0.24
22 30 0.4 0.23
22 31 0.56 0.33
22 32 0.52 0.23
22 33 0.2 0.15
22 34 0.68 0.28
22 35 0.68 0.19
22 36 0.38 0.26
22 37 0.52 0.28
22 38 0.63 0.2
22 39 0.56 0.3
22 40 0.4 0.17
22 41 0.69 0.29
22 42 0.44 0.25
22 43 0.68 0.25
22 44 0.59 0.17
22 45 0.44 0.26
22 46 0.6 0.31
22 47 0.42 0.23
22 48 0.62 0.19
22 49 0.76 0.3
23 24 0.48 0.17
23 25 0.67 0.22
23 26 0.72 0.26
23 27 0.61 0.2
23 28 0.62 0.16
23 29 0.59 0.18
23 30 0.23 0.06
23 31 0.54 0.16
23 32 0.6 0.14
23 33 0.65 0.14
23 34 0.56 0.24
23 35 0.57 0.18
23 36 0.53 0.21
23 37 0.46 0.14
23 38 0.72 0.21
23 39 0.61 0.24
23 40 0.53 0.26
23 41 0.59 0.25
23 42 0.42 0.22
23 43 0.66 0.23
23 44 0.72 0.16
23 45 0.6 0.1
23 46 0.44 0.15
23 47 0.54 0.16
23 48 0.5 0.1
23 49 0.2 0.16
24 25 0.37 0.16
24 26 0.76 0.24
24 27 0.54 0.22
24 28 0.61 0.16
24 29 0.66 0.14
24 30 0.68 0.23
24 31 0.36 0.18
24 32 0.4 0.11
24 33 0.32 0.03
24 34 0.43 0.1
24 35 0.62 0.07
24 36 0.59 0.23
24 37 0.78 0.18
24 38 0.57 0.11
24 39 0.46 0.18
24 40 0.58 0.23
24 41 0.62 0.17
24 42 0.65 0.19
24 43 0.64 0.2
24 44 0.59 0.05
24 45 0.38 0.15
24 46 0.63 0.19
24 47 0.48 0.11
24 48 0.58 0.07
24 49 0.54 0.18
25 26 0.56 0.32
25 27 0.52 0.2
25 28 0.24 0.22
25 29 0.44 0.28
25 30 0.44 0.28
25 31 0.54 0.24
25 32 0.56 0.2
25 33 0.42 0.19
25 34 0.64 0.24
25 35 0.6 0.23
25 36 0.62 0.14
25 37 0.52 0.25
25 38 0.71 0.2
25 39 0.48 0.16
25 40 0.38 0.3
25 41 0.52 0.16
25 42 0.48 0.28
25 43 0.52 0.29
25 44 0.66 0.21
25 45 0.68 0.24
25 46 0.68 0.22
25 47 0.37 0.2
25 48 0.55 0.16
25 49 0.7 0.17
26 27 0.75 0.3
26 28 0.74 0.3
26 29 0.42 0.22
26 30 0.72 0.32
26 31 0.6 0.34
26 32 0.48 0.21
26 33 0.52 0.21
26 34 0.62 0.34
26 35 0.74 0.23
26 36 0.61 0.36
26 37 0.59 0.26
26 38 0.76 0.29
26 39 0.52 0.3
26 40 0.68 0.25
26 41 0.82 0.3
26 42 0.46 0.28
26 43 0.66 0.22
26 44 0.49 0.23
26 45 0.66 0.24
26 46 0.4 0.23
26 47 0.66 0.25
26 48 0.7 0.17
26 49 0.61 0.26
27 28 0.5 0.26
27 29 0.59 0.18
27 30 0.42 0.26
27 31 0.5 0.04
27 32 0.76 0.26
27 33 0.4 0.2
27 34 0.56 0.18
27 35 0.66 0.2
27 36 0.57 0.33
27 37 0.62 0.22
27 38 0.43 0.26
27 39 0.54 0.24
27 40 0.5 0.2
27 41 0.19 0.06
27 42 0.56 0.14
27 43 0.48 0.24
27 44 0.65 0.18
27 45 0.46 0.22
27 46 0.53 0.2
27 47 0.56 0.22
27 48 0.42 0.22
27 49 0.48 0.15
28 29 0.33 0.18
28 30 0.39 0.22
28 31 0.3 0.24
28 32 0.52 0.09
28 33 0.53 0.13
28 34 0.48 0.08
28 35 0.45 0.13
28 36 0.41 0.29
28 37 0.5 0.2
28 38 0.7 0.21
28 39 0.64 0.16
28 40 0.26 0.26
28 41 0.5 0.2
28 42 0.7 0.25
28 43 0.76 0.26
28 44 0.6 0.11
28 45 0.63 0.18
28 46 0.52 0.27
28 47 0.46 0.05
28 48 0.45 0.13
28 49 0.6 0.12
29 30 0.36 0.2
29 31 0.4 0.2
29 32 0.4 0.23
29 33 0.53 0.17
29 34 0.44 0.24
29 35 0.64 0.21
29 36 0.59 0.29
29 37 0.17 0.04
29 38 0.43 0.22
29 39 0.6 0.21
29 40 0.26 0.2
29 41 0.4 0.12
29 42 0.68 0.28
29 43 0.47 0.3
29 44 0.36 0.19
29 45 0.69 0.22
29 46 0.41 0.24
29 47 0.54 0.19
29 48 0.36 0.21
29 49 0.54 0.12
30 31 0.68 0.22
30 32 0.68 0.2
30 33 0.57 0.2
30 34 0.52 0.3
30 35 0.58 0.19
30 36 0.5 0.27
30 37 0.53 0.2
30 38 0.79 0.27
30 39 0.47 0.3
30 40 0.3 0.22
30 41 0.47 0.22
30 42 0.65 0.28
30 43 0.54 0.29
30 44 0.56 0.21
30 45 0.43 0.16
30 46 0.46 0.21
30 47 0.62 0.22
30 48 0.7 0.16
30 49 0.43 0.22
31 32 0.26 0.22
31 33 0.5 0.21
31 34 0.18 0.16
31 35 0.38 0.24
31 36 0.71 0.29
31 37 0.57 0.24
31 38 0.68 0.29
31 39 0.34 0.24
31 40 0.56 0.24
31 41 0.46 0.1
31 42 0.75 0.18
31 43 0.58 0.28
31 44 0.63 0.22
31 45 0.54 0.18
31 46 0.54 0.24
31 47 0.54 0.24
31 48 0.59 0.18
31 49 0.54 0.19
32 33 0.72 0.08
32 34 0.44 0.17
32 35 0.48 0.12
32 36 0.64 0.27
32 37 0.48 0.19
32 38 0.49 0.16
32 39 0.45 0.18
32 40 0.54 0.2
32 41 0.58 0.2
32 42 0.56 0.22
32 43 0.69 0.17
32 44 0.54 0.1
32 45 0.53 0.12
32 46 0.64 0.24
32 47 0.66 0.04
32 48 0.38 0.04
32 49 0.55 0.11
33 34 0.54 0.13
33 35 0.68 0.04
33 36 0.43 0.2
33 37 0.7 0.21
33 38 0.53 0.08
33 39 0.52 0.18
33 40 0.27 0.2
33 41 0.58 0.14
33 42 0.64 0.16
33 43 0.53 0.17
33 44 0.67 0.02
33 45 0.64 0.12
33 46 0.52 0.16
33 47 0.32 0.08
33 48 0.46 0.04
33 49 0.7 0.15
34 35 0.32 0.17
34 36 0.64 0.21
34 37 0.61 0.28
34 38 0.5 0.2
34 39 0.16 0.08
34 40 0.54 0.26
34 41 0.64 0.12
34 42 0.57 0.2
34 43 0.62 0.3
34 44 0.67 0.15
34 45 0.64 0.25
34 46 0.36 0.26
34 47 0.68 0.13
34 48 0.46 0.17
34 49 0.36 0.2
35 36 0.45 0.16
35 37 0.69 0.23
35 38 0.77 0.12
35 39 0.48 0.22
35 40 0.48 0.22
35 41 0.79 0.14
35 42 0.49 0.12
35 43 0.57 0.19
35 44 0.5 0.02
35 45 0.64 0.16
35 46 0.36 0.15
35 47 0.5 0.08
35 48 0.39 0.08
35 49 0.68 0.15
36 37 0.72 0.25
36 38 0.86 0.26
36 39 0.56 0.29
36 40 0.54 0.38
36 41 0.7 0.27
36 42 0.58 0.28
36 43 0.84 0.35
36 44 0.58 0.18
36 45 0.82 0.23
36 46 0.48 0.25
36 47 0.51 0.24
36 48 0.64 0.23
36 49 0.44 0.18
37 38 0.28 0.22
37 39 0.7 0.25
37 40 0.43 0.24
37 41 0.43 0.16
37 42 0.82 0.24
37 43 0.64 0.3
37 44 0.45 0.21
37 45 0.52 0.18
37 46 0.5 0.23
37 47 0.71 0.15
37 48 0.53 0.22
37 49 0.66 0.08
38 39 0.66 0.12
38 40 0.69 0.28
38 41 0.62 0.2
38 42 0.74 0.24
38 43 0.82 0.25
38 44 0.36 0.1
38 45 0.54 0.19
38 46 0.54 0.22
38 47 0.54 0.16
38 48 0.56 0.12
38 49 0.62 0.21
39 40 0.5 0.18
39 41 0.49 0.18
39 42 0.41 0.18
39 43 0.58 0.27
39 44 0.51 0.2
39 45 0.48 0.22
39 46 0.2 0.2
39 47 0.54 0.21
39 48 0.3 0.14
39 49 0.52 0.19
40 41 0.31 0.24
40 42 0.62 0.18
40 43 0.73 0.21
40 44 0.56 0.22
40 45 0.72 0.24
40 46 0.44 0.28
40 47 0.59 0.24
40 48 0.56 0.16
40 49 0.52 0.3
41 42 0.58 0.2
41 43 0.44 0.23
41 44 0.65 0.12
41 45 0.53 0.19
41 46 0.66 0.14
41 47 0.73 0.16
41 48 0.46 0.18
41 49 0.66 0.09
42 43 0.57 0.25
42 44 0.64 0.14
42 45 0.62 0.24
42 46 0.6 0.22
42 47 0.46 0.2
42 48 0.52 0.18
42 49 0.6 0.16
43 44 0.79 0.19
43 45 0.47 0.21
43 46 0.78 0.31
43 47 0.58 0.21
43 48 0.73 0.13
43 49 0.7 0.22
44 45 0.64 0.14
44 46 0.58 0.17
44 47 0.52 0.06
44 48 0.5 0.06
44 49 0.68 0.13
45 46 0.62 0.25
45 47 0.74 0.16
45 48 0.44 0.08
45 49 0.4 0.1
46 47 0.44 0.22
46 48 0.5 0.2
46 49 0.44 0.15
47 48 0.67 0.08
47 49 0.61 0.07
48 49 0.62 0.14
